# Copyright 2026 Cisco Systems, Inc. and its affiliates
#
# SPDX-License-Identifier: Apache-2.0

FROM python:3.10-slim

WORKDIR /app

# Install Flask
RUN pip install --no-cache-dir flask

# Copy CFN mock service
COPY demo-apps/cfn_mock.py /app/cfn_mock.py

# Run as non-root for security
RUN useradd -u 1000 -m appuser && \
    chown -R appuser:appuser /app
USER appuser

CMD ["python", "cfn_mock.py"]
